(set-logic QF_BV)
(define-fun implies ((p Bool) (q Bool)) Bool (or (not p) q))

(declare-const Xerox Bool)
(declare-const Capabilites Bool)
(declare-const StandardCapabilities Bool)
(declare-const Print Bool)
(declare-const Scan Bool)
(declare-const Copy Bool)
(declare-const Fax Bool)
(declare-const ProductionPrinting Bool)
(declare-const Finishing Bool)
(declare-const Reprinting Bool)
(declare-const ProductionMICRPrinting Bool)
(declare-const High_volumenetworkprintingand3rd_partyfinishing Bool)
(declare-const PrintedSides Bool)
(declare-const Duplex Bool)
(declare-const MICR Bool)
(declare-const Yes Bool)
(declare-const No Bool)
(declare-const ProductColor Bool)
(declare-const PrintLineManagement Bool)
(declare-const OptionalCapabilties Bool)
(declare-const Finishing_1 Bool)
(declare-const Scanning Bool)
(declare-const Performance Bool)
(declare-const RatedSpeed Bool)
(declare-const Resolution Bool)
(declare-const Print_1 Bool)
(declare-const RIP Bool)
(declare-const Scan_1 Bool)
(declare-const Scantofile Bool)
(declare-const Black Bool)
(declare-const Color Bool)
(declare-const Recommendedaveragemonthlyvolume Bool)
(declare-const Dutycycle Bool)
(declare-const ScanSpeed Bool)
(declare-const IntegratedScanner Bool)
(declare-const FreeFlowScanner Bool)
(declare-const LineScreens Bool)
(declare-const Technology Bool)
(declare-const PDLs Bool)
(declare-const NetworkInterfaces Bool)
(declare-const Memory Bool)
(declare-const Harddisk Bool)
(declare-const CPU Bool)
(declare-const UserInterface Bool)
(declare-const PrintEngine Bool)
(declare-const ProcessorImaging Bool)
(declare-const Black_1 Bool)
(declare-const Color_1 Bool)
(declare-const PaperHandling Bool)
(declare-const Papersources Bool)
(declare-const SheetFeedModule Bool)
(declare-const HighCapacitySheetFeedModule Bool)
(declare-const HighCapacityStackingOption Bool)
(declare-const StitchingandBindingoption Bool)
(declare-const Standardpapercapacity Bool)
(declare-const SheetFeedModule_1 Bool)
(declare-const HighCapacitySheetFeedModule_1 Bool)
(declare-const HighCapacityStackingOption_1 Bool)
(declare-const StitchingandBindingoption_1 Bool)
(declare-const Maximumpapercapacitywithoptions Bool)
(declare-const MediaDimensions_Minimum Bool)
(declare-const MediaDimensions_Maximum Bool)
(declare-const MediaWeight_Minimum Bool)
(declare-const coated Bool)
(declare-const uncoated Bool)
(declare-const MediaWeight_Maximum Bool)
(declare-const coated_1 Bool)
(declare-const uncoated_1 Bool)
(declare-const MediaTypes Bool)
(declare-const coated_2 Bool)
(declare-const uncoated_2 Bool)
(declare-const speciality Bool)
(declare-const Input Bool)
(declare-const HighCapacityFeeder Bool)
(declare-const StandardFour_traySheet Bool)
(declare-const OversizedHigh_CapacitySheetFeedModule Bool)
(declare-const RollFeedSolution Bool)
(declare-const OtherInputDevices Bool)
(declare-const Post_printFour_trayPaperInsertionModule Bool)
(declare-const Post_printOversizedTwo_trayPaperInsertionModule Bool)
(declare-const InsertionModule Bool)
(declare-const HighCapacityInsertionModule Bool)
(declare-const Tray Bool)
(declare-const Tray1 Bool)
(declare-const Tray2 Bool)
(declare-const Tray3 Bool)
(declare-const Tray4 Bool)
(declare-const Tray5 Bool)
(declare-const ElectronicInput Bool)
(declare-const AutomaticDoucmentFeeder Bool)
(declare-const Output Bool)
(declare-const OffsetOutputTray Bool)
(declare-const TopTray Bool)
(declare-const Stacker Bool)
(declare-const Finishing_2 Bool)
(declare-const Finisher Bool)
(declare-const BasicFinisherModule Bool)
(declare-const BasicFinisherModulePlus Bool)
(declare-const BasicFinisherModule_DC Bool)
(declare-const MultifunctionFinisherProfessional Bool)
(declare-const MultifunctionFinisherProplus Bool)
(declare-const BookletMaking Bool)
(declare-const Stapler Bool)
(declare-const Binder Bool)
(declare-const Cutting Bool)
(declare-const TapeBound Bool)
(declare-const HolePunch Bool)
(declare-const OtherFinishingOptions Bool)
(declare-const Stacker_1 Bool)
(declare-const SlitterorMerger Bool)
(declare-const ByPassTransport Bool)
(declare-const PrintControllers Bool)
(declare-const Digitalfront_ends Bool)
(declare-const Environmental Bool)
(declare-const ElectricalRequirements Bool)
(declare-const Dimensions Bool)
(declare-const PrintEngine_1 Bool)
(declare-const SheetfeedandInsertionModule Bool)
(declare-const SheetEnhancementModule Bool)
(declare-const BasicFinisherModule_1 Bool)
(declare-const BasicFinisherModulePlus_1 Bool)
(declare-const FinishingTransportModule Bool)
(declare-const FeederModuleWithIntegratedScanner Bool)
(declare-const Professional Bool)
(declare-const MultifunctionFinisherProplus_1 Bool)
(declare-const BasicFinisherModuleDC Bool)
(declare-const XeroxDS3500Stacker Bool)
(declare-const XeroxTapeBinder Bool)
(declare-const Security Bool)
(declare-const IPfiltering Bool)
(declare-const Imageoverwrite Bool)
(declare-const Secureprint Bool)
(declare-const EncryptedScantoemail Bool)
(declare-const Authentication Bool)
(declare-const IP_v6support Bool)
(declare-const Price Bool)
(declare-const Category Bool)
(declare-const DigitalPrintingPresses Bool)
(declare-const ColorDigitalPrintingPress Bool)
(declare-const BandWPublishingDigitalPrintingPress Bool)
(declare-const BandWTransactionDigitalPrintingPress Bool)
(declare-const HighLightColorDigitalPrintingPress Bool)
(declare-const ProductionPrintersandCopiers Bool)
(declare-const ColorPrinters Bool)
(declare-const BandWPrinters Bool)
(declare-const BandWPublishing Bool)
(declare-const BandWTransaction Bool)
(declare-const HighLightColor Bool)
(declare-const ContinuousFeedPrinters Bool)
(declare-const WideFormatSolutions Bool)
(declare-const ColorWideFormatPrinters Bool)
(declare-const DigitalWideFormatPrintersandCopiers Bool)
(declare-const WideFormatFinishers Bool)
(declare-const SoftwareSolutions Bool)
(declare-const Workflowsoftware Bool)
(declare-const FreeflowSoftwareandscanners Bool)
(declare-const DFEsandcontrollers Bool)
(declare-const Productionprintingsoftware Bool)
(declare-const BusinessDevelopment Bool)
(declare-const Products Bool)
(declare-const MonoProducts Bool)
(declare-const BB Bool)
(declare-const QM Bool)
(declare-const Teak Bool)
(declare-const HLC Bool)
(declare-const Nuvera Bool)
(declare-const ColorProducts Bool)
(declare-const Mykonos Bool)
(declare-const Malta Bool)
(declare-const Chandon Bool)
(declare-const Chamonix Bool)
(declare-const Pinot Bool)
(assert
(and Xerox(and(=(or Print Scan Copy Fax ProductionPrinting Finishing Reprinting ProductionMICRPrinting High_volumenetworkprintingand3rd_partyfinishing)
 StandardCapabilities)
(implies Duplex PrintedSides)
(and(implies(or Yes No)
 MICR)
(implies MICR(or(and Yes(not No))
(and(not Yes)
 No))))
(and(= StandardCapabilities Capabilites)
(= PrintedSides Capabilites)
(= MICR Capabilites)
(= ProductColor Capabilites)
(= PrintLineManagement Capabilites))
(=(or Finishing_1 Scanning)
 OptionalCapabilties)
(implies OptionalCapabilties Capabilites)
(=(or Print_1 RIP Scan_1 Scantofile Black Color)
 Resolution)
(=(or IntegratedScanner FreeFlowScanner)
 ScanSpeed)
(and(= RatedSpeed Performance)
(= Resolution Performance)
(= Recommendedaveragemonthlyvolume Performance)
(= Dutycycle Performance)
(= ScanSpeed Performance)
(= LineScreens Performance))
(=(or Black_1 Color_1)
 ProcessorImaging)
(and(= PDLs Technology)
(= NetworkInterfaces Technology)
(= Memory Technology)
(= Harddisk Technology)
(= CPU Technology)
(= UserInterface Technology)
(= PrintEngine Technology)
(= ProcessorImaging Technology))
(=(or SheetFeedModule HighCapacitySheetFeedModule HighCapacityStackingOption StitchingandBindingoption)
 Papersources)
(=(or SheetFeedModule_1 HighCapacitySheetFeedModule_1 HighCapacityStackingOption_1 StitchingandBindingoption_1)
 Standardpapercapacity)
(=(or coated uncoated)
 MediaWeight_Minimum)
(=(or coated_1 uncoated_1)
 MediaWeight_Maximum)
(=(or coated_2 uncoated_2 speciality)
 MediaTypes)
(and(= Papersources PaperHandling)
(= Standardpapercapacity PaperHandling)
(= Maximumpapercapacitywithoptions PaperHandling)
(= MediaDimensions_Minimum PaperHandling)
(= MediaDimensions_Maximum PaperHandling)
(= MediaWeight_Minimum PaperHandling)
(= MediaWeight_Maximum PaperHandling)
(= MediaTypes PaperHandling))
(=(or StandardFour_traySheet OversizedHigh_CapacitySheetFeedModule RollFeedSolution)
 HighCapacityFeeder)
(=(or Post_printFour_trayPaperInsertionModule Post_printOversizedTwo_trayPaperInsertionModule InsertionModule HighCapacityInsertionModule)
 OtherInputDevices)
(=(or Tray1 Tray2 Tray3 Tray4 Tray5)
 Tray)
(and(= HighCapacityFeeder Input)
(= OtherInputDevices Input)
(= Tray Input)
(= ElectronicInput Input)
(= AutomaticDoucmentFeeder Input))
(=(or OffsetOutputTray TopTray Stacker)
 Output)
(=(or BasicFinisherModule BasicFinisherModulePlus BasicFinisherModule_DC MultifunctionFinisherProfessional MultifunctionFinisherProplus)
 Finisher)
(=(or Finisher BookletMaking Stapler Binder Cutting TapeBound HolePunch OtherFinishingOptions Stacker_1 SlitterorMerger ByPassTransport)
 Finishing_2)
(= Digitalfront_ends PrintControllers)
(=(or PrintEngine_1 SheetfeedandInsertionModule SheetEnhancementModule BasicFinisherModule_1 BasicFinisherModulePlus_1 FinishingTransportModule FeederModuleWithIntegratedScanner Professional MultifunctionFinisherProplus_1 BasicFinisherModuleDC XeroxDS3500Stacker XeroxTapeBinder)
 Dimensions)
(and(= ElectricalRequirements Environmental)
(= Dimensions Environmental))
(=(or IPfiltering Imageoverwrite Secureprint EncryptedScantoemail Authentication IP_v6support)
 Security)
(and(implies(or ColorDigitalPrintingPress BandWPublishingDigitalPrintingPress BandWTransactionDigitalPrintingPress HighLightColorDigitalPrintingPress)
 DigitalPrintingPresses)
(implies DigitalPrintingPresses(or(and ColorDigitalPrintingPress(not BandWPublishingDigitalPrintingPress)
(not BandWTransactionDigitalPrintingPress)
(not HighLightColorDigitalPrintingPress))
(and(not ColorDigitalPrintingPress)
 BandWPublishingDigitalPrintingPress(not BandWTransactionDigitalPrintingPress)
(not HighLightColorDigitalPrintingPress))
(and(not ColorDigitalPrintingPress)
(not BandWPublishingDigitalPrintingPress)
 BandWTransactionDigitalPrintingPress(not HighLightColorDigitalPrintingPress))
(and(not ColorDigitalPrintingPress)
(not BandWPublishingDigitalPrintingPress)
(not BandWTransactionDigitalPrintingPress)
 HighLightColorDigitalPrintingPress))))
(and(implies(or ColorPrinters BandWPrinters BandWPublishing BandWTransaction HighLightColor)
 ProductionPrintersandCopiers)
(implies ProductionPrintersandCopiers(or(and ColorPrinters(not BandWPrinters)
(not BandWPublishing)
(not BandWTransaction)
(not HighLightColor))
(and(not ColorPrinters)
 BandWPrinters(not BandWPublishing)
(not BandWTransaction)
(not HighLightColor))
(and(not ColorPrinters)
(not BandWPrinters)
 BandWPublishing(not BandWTransaction)
(not HighLightColor))
(and(not ColorPrinters)
(not BandWPrinters)
(not BandWPublishing)
 BandWTransaction(not HighLightColor))
(and(not ColorPrinters)
(not BandWPrinters)
(not BandWPublishing)
(not BandWTransaction)
 HighLightColor))))
(and(implies(or ColorWideFormatPrinters DigitalWideFormatPrintersandCopiers WideFormatFinishers SoftwareSolutions)
 WideFormatSolutions)
(implies WideFormatSolutions(or(and ColorWideFormatPrinters(not DigitalWideFormatPrintersandCopiers)
(not WideFormatFinishers)
(not SoftwareSolutions))
(and(not ColorWideFormatPrinters)
 DigitalWideFormatPrintersandCopiers(not WideFormatFinishers)
(not SoftwareSolutions))
(and(not ColorWideFormatPrinters)
(not DigitalWideFormatPrintersandCopiers)
 WideFormatFinishers(not SoftwareSolutions))
(and(not ColorWideFormatPrinters)
(not DigitalWideFormatPrintersandCopiers)
(not WideFormatFinishers)
 SoftwareSolutions))))
(and(implies(or FreeflowSoftwareandscanners DFEsandcontrollers Productionprintingsoftware)
 Workflowsoftware)
(implies Workflowsoftware(or(and FreeflowSoftwareandscanners(not DFEsandcontrollers)
(not Productionprintingsoftware))
(and(not FreeflowSoftwareandscanners)
 DFEsandcontrollers(not Productionprintingsoftware))
(and(not FreeflowSoftwareandscanners)
(not DFEsandcontrollers)
 Productionprintingsoftware))))
(and(implies(or DigitalPrintingPresses ProductionPrintersandCopiers ContinuousFeedPrinters WideFormatSolutions Workflowsoftware BusinessDevelopment)
 Category)
(implies Category(or(and DigitalPrintingPresses(not ProductionPrintersandCopiers)
(not ContinuousFeedPrinters)
(not WideFormatSolutions)
(not Workflowsoftware)
(not BusinessDevelopment))
(and(not DigitalPrintingPresses)
 ProductionPrintersandCopiers(not ContinuousFeedPrinters)
(not WideFormatSolutions)
(not Workflowsoftware)
(not BusinessDevelopment))
(and(not DigitalPrintingPresses)
(not ProductionPrintersandCopiers)
 ContinuousFeedPrinters(not WideFormatSolutions)
(not Workflowsoftware)
(not BusinessDevelopment))
(and(not DigitalPrintingPresses)
(not ProductionPrintersandCopiers)
(not ContinuousFeedPrinters)
 WideFormatSolutions(not Workflowsoftware)
(not BusinessDevelopment))
(and(not DigitalPrintingPresses)
(not ProductionPrintersandCopiers)
(not ContinuousFeedPrinters)
(not WideFormatSolutions)
 Workflowsoftware(not BusinessDevelopment))
(and(not DigitalPrintingPresses)
(not ProductionPrintersandCopiers)
(not ContinuousFeedPrinters)
(not WideFormatSolutions)
(not Workflowsoftware)
 BusinessDevelopment))))
(and(implies(or BB QM Teak HLC Nuvera)
 MonoProducts)
(implies MonoProducts(or(and BB(not QM)
(not Teak)
(not HLC)
(not Nuvera))
(and(not BB)
 QM(not Teak)
(not HLC)
(not Nuvera))
(and(not BB)
(not QM)
 Teak(not HLC)
(not Nuvera))
(and(not BB)
(not QM)
(not Teak)
 HLC(not Nuvera))
(and(not BB)
(not QM)
(not Teak)
(not HLC)
 Nuvera))))
(and(implies(or Mykonos Malta Chandon Chamonix Pinot)
 ColorProducts)
(implies ColorProducts(or(and Mykonos(not Malta)
(not Chandon)
(not Chamonix)
(not Pinot))
(and(not Mykonos)
 Malta(not Chandon)
(not Chamonix)
(not Pinot))
(and(not Mykonos)
(not Malta)
 Chandon(not Chamonix)
(not Pinot))
(and(not Mykonos)
(not Malta)
(not Chandon)
 Chamonix(not Pinot))
(and(not Mykonos)
(not Malta)
(not Chandon)
(not Chamonix)
 Pinot))))
(and(implies(or MonoProducts ColorProducts)
 Products)
(implies Products(or(and MonoProducts(not ColorProducts))
(and(not MonoProducts)
 ColorProducts))))
(and(= Capabilites Xerox)
(= Performance Xerox)
(= Technology Xerox)
(= PaperHandling Xerox)
(= Input Xerox)
(= Output Xerox)
(= Finishing_2 Xerox)
(= PrintControllers Xerox)
(= Environmental Xerox)
(= Security Xerox)
(= Price Xerox)
(= Category Xerox)
(= Products Xerox))))
)